Unidireccional5.tsp
DIMENSION: 5
NODE_COORD_SECTION
1 -273.6842105263 192.5734024180
2 -406.3291139241 -441.5196743555
3 -88.8888888889 -3928.5714285714
4 -246.8659594986 -628.2700421941
5 375.3882915173 378.7072243346
