Unidireccional5.tour
NAME: Unidireccional5.tour
TYPE: TOUR
DIMENSION: 5
SOLUTION: 21564.46785789
TOUR_SECTION
1,2,5,4,3,1
1007.54453956 - 1,2
2118.45686028 - 2,5
2184.04794012 - 5,4
8386.19059068 - 4,3
7868.22792725 - 3,1
EOF